CPXPARAM_TimeLimit                               7200
CPXPARAM_Read_DataCheck                          1
Parallel mode: deterministic, using up to 8 threads for concurrent optimization.
Tried aggregator 1 time.
No LP presolve or aggregator reductions.
Presolve time = 0.00 sec. (1.32 ticks)

Iteration log . . .
Iteration:     1   Dual objective     =           963.000000
Iteration:    96   Dual objective     =           963.000000
Perturbation started.
Iteration:   101   Dual objective     =           963.000000
Iteration:   207   Dual objective     =           963.014744
Iteration:   378   Dual objective     =           963.014925
Iteration:   546   Dual objective     =           963.014928
Iteration:   716   Dual objective     =           963.014930
Iteration:   889   Dual objective     =           963.014931
Removing perturbation.

Dual simplex solved model.

